60
1264
7
76
15
96
3
34
65
86
0 2
0 3
0 5
0 6
0 7
0 9
0 10
0 13
0 14
0 15
0 19
0 21
0 22
0 23
0 26
0 28
0 30
0 32
0 34
0 36
0 37
0 38
0 39
0 40
0 41
0 42
0 43
0 45
0 46
0 47
0 48
0 49
0 50
0 52
0 53
0 55
0 57
0 59
1 3
1 4
1 5
1 6
1 7
1 8
1 9
1 10
1 12
1 13
1 14
1 16
1 18
1 19
1 20
1 21
1 22
1 23
1 24
1 25
1 26
1 27
1 29
1 31
1 34
1 35
1 37
1 40
1 42
1 43
1 44
1 46
1 48
1 50
1 51
1 53
1 54
1 55
1 56
1 58
2 3
2 4
2 5
2 8
2 9
2 10
2 11
2 14
2 15
2 17
2 19
2 20
2 21
2 22
2 23
2 25
2 27
2 28
2 29
2 31
2 32
2 33
2 34
2 35
2 36
2 39
2 41
2 42
2 43
2 44
2 47
2 49
2 51
2 53
2 54
2 55
2 56
2 57
2 58
2 59
3 4
3 7
3 8
3 9
3 10
3 11
3 12
3 13
3 14
3 15
3 16
3 17
3 18
3 19
3 20
3 22
3 23
3 24
3 27
3 29
3 30
3 32
3 33
3 35
3 36
3 37
3 38
3 39
3 40
3 44
3 46
3 47
3 48
3 49
3 50
3 53
3 54
3 56
3 57
3 58
3 59
4 5
4 6
4 8
4 10
4 11
4 12
4 13
4 14
4 17
4 18
4 20
4 22
4 24
4 25
4 27
4 28
4 29
4 30
4 31
4 32
4 33
4 34
4 36
4 38
4 39
4 40
4 41
4 43
4 44
4 46
4 47
4 48
4 49
4 50
4 51
4 53
4 54
4 55
4 57
4 58
4 59
5 7
5 8
5 11
5 13
5 14
5 16
5 18
5 19
5 20
5 21
5 22
5 27
5 28
5 30
5 31
5 33
5 34
5 35
5 36
5 37
5 39
5 42
5 43
5 46
5 47
5 48
5 51
5 53
5 55
5 56
5 57
5 58
5 59
6 8
6 9
6 10
6 12
6 13
6 14
6 17
6 18
6 19
6 20
6 22
6 24
6 25
6 26
6 27
6 28
6 29
6 30
6 32
6 33
6 35
6 37
6 39
6 42
6 43
6 45
6 46
6 47
6 48
6 49
6 50
6 51
6 53
6 55
6 56
6 57
6 58
7 9
7 10
7 12
7 13
7 14
7 15
7 16
7 17
7 18
7 19
7 20
7 21
7 22
7 23
7 24
7 25
7 26
7 27
7 28
7 29
7 30
7 31
7 32
7 33
7 34
7 35
7 37
7 38
7 40
7 41
7 42
7 43
7 45
7 48
7 49
7 50
7 53
7 54
7 55
7 56
7 57
7 59
8 10
8 11
8 12
8 13
8 14
8 16
8 18
8 19
8 21
8 22
8 23
8 24
8 26
8 28
8 29
8 31
8 32
8 34
8 36
8 38
8 39
8 40
8 41
8 44
8 46
8 47
8 48
8 49
8 50
8 51
8 52
8 53
8 54
8 58
9 10
9 11
9 12
9 14
9 15
9 17
9 18
9 21
9 23
9 26
9 27
9 28
9 30
9 32
9 33
9 34
9 35
9 36
9 37
9 38
9 39
9 40
9 43
9 44
9 45
9 46
9 48
9 49
9 50
9 52
9 54
9 56
9 57
9 59
10 11
10 12
10 14
10 18
10 19
10 20
10 21
10 27
10 30
10 31
10 32
10 33
10 36
10 38
10 39
10 40
10 41
10 42
10 43
10 44
10 45
10 48
10 50
10 53
10 54
10 55
10 56
10 57
10 58
11 13
11 14
11 15
11 16
11 17
11 18
11 19
11 20
11 21
11 22
11 23
11 24
11 25
11 26
11 27
11 28
11 29
11 30
11 32
11 33
11 34
11 35
11 36
11 37
11 38
11 39
11 40
11 41
11 42
11 43
11 44
11 45
11 46
11 48
11 49
11 51
11 52
11 53
11 55
11 56
11 57
11 58
11 59
12 13
12 15
12 17
12 18
12 20
12 21
12 23
12 24
12 25
12 26
12 27
12 30
12 31
12 32
12 34
12 35
12 36
12 37
12 38
12 39
12 40
12 41
12 42
12 43
12 44
12 45
12 46
12 48
12 49
12 50
12 51
12 52
12 53
12 54
12 55
12 56
12 57
12 58
12 59
13 14
13 15
13 16
13 17
13 18
13 20
13 21
13 24
13 25
13 26
13 28
13 29
13 32
13 33
13 34
13 35
13 36
13 37
13 38
13 39
13 40
13 42
13 43
13 44
13 47
13 48
13 49
13 51
13 52
13 53
13 54
13 57
13 58
14 15
14 16
14 17
14 20
14 21
14 23
14 24
14 25
14 27
14 28
14 29
14 30
14 32
14 33
14 34
14 35
14 36
14 37
14 39
14 40
14 41
14 42
14 43
14 45
14 46
14 47
14 48
14 49
14 50
14 51
14 52
14 53
14 56
14 57
14 58
14 59
15 16
15 17
15 18
15 20
15 21
15 26
15 28
15 29
15 30
15 31
15 32
15 33
15 34
15 35
15 36
15 40
15 41
15 42
15 43
15 44
15 45
15 46
15 47
15 48
15 49
15 50
15 52
15 55
15 56
15 58
16 18
16 19
16 20
16 21
16 23
16 24
16 25
16 26
16 27
16 29
16 30
16 34
16 38
16 40
16 41
16 42
16 44
16 45
16 48
16 50
16 51
16 52
16 53
16 54
16 55
16 56
16 57
16 58
17 19
17 20
17 21
17 23
17 24
17 26
17 27
17 28
17 29
17 30
17 31
17 32
17 33
17 34
17 35
17 37
17 39
17 41
17 44
17 45
17 46
17 47
17 48
17 49
17 50
17 51
17 52
17 54
17 55
17 56
17 58
18 20
18 21
18 22
18 23
18 25
18 26
18 27
18 28
18 29
18 30
18 31
18 33
18 34
18 35
18 36
18 37
18 39
18 40
18 42
18 43
18 44
18 46
18 47
18 48
18 49
18 50
18 52
18 53
18 54
18 55
18 56
19 20
19 21
19 22
19 23
19 25
19 26
19 27
19 28
19 31
19 32
19 33
19 34
19 36
19 38
19 40
19 41
19 42
19 44
19 45
19 48
19 49
19 50
19 51
19 52
19 53
19 56
19 57
19 59
20 22
20 23
20 24
20 27
20 28
20 29
20 33
20 35
20 36
20 37
20 38
20 39
20 40
20 43
20 44
20 45
20 46
20 47
20 48
20 49
20 50
20 51
20 52
20 55
20 56
20 58
21 22
21 23
21 24
21 25
21 26
21 27
21 29
21 31
21 32
21 33
21 34
21 35
21 36
21 37
21 38
21 40
21 41
21 43
21 44
21 45
21 48
21 49
21 51
21 53
21 54
21 55
21 56
21 57
21 58
21 59
22 23
22 24
22 25
22 28
22 29
22 31
22 32
22 33
22 34
22 35
22 36
22 38
22 39
22 40
22 41
22 42
22 43
22 44
22 45
22 46
22 47
22 48
22 50
22 51
22 52
22 54
22 55
22 56
22 58
23 24
23 25
23 27
23 29
23 30
23 31
23 32
23 33
23 34
23 35
23 37
23 38
23 39
23 40
23 42
23 45
23 46
23 47
23 49
23 51
23 52
23 54
23 55
23 56
23 57
23 59
24 25
24 27
24 29
24 30
24 31
24 32
24 34
24 36
24 37
24 39
24 40
24 42
24 43
24 44
24 45
24 47
24 49
24 50
24 51
24 52
24 53
24 56
24 57
24 58
24 59
25 27
25 28
25 29
25 30
25 31
25 33
25 34
25 36
25 37
25 39
25 40
25 41
25 43
25 45
25 46
25 47
25 48
25 49
25 50
25 51
25 52
25 53
25 55
25 56
25 57
25 58
26 29
26 30
26 31
26 34
26 35
26 36
26 38
26 39
26 40
26 42
26 44
26 45
26 46
26 48
26 49
26 50
26 51
26 52
26 53
26 54
26 55
26 56
27 28
27 29
27 30
27 31
27 34
27 35
27 36
27 37
27 39
27 41
27 42
27 43
27 44
27 45
27 46
27 47
27 48
27 49
27 50
27 53
27 54
27 55
27 58
28 29
28 30
28 31
28 33
28 34
28 37
28 38
28 39
28 40
28 41
28 42
28 43
28 44
28 46
28 47
28 48
28 50
28 55
28 56
28 57
28 59
29 32
29 33
29 34
29 35
29 37
29 38
29 40
29 41
29 42
29 43
29 45
29 46
29 47
29 48
29 50
29 53
29 54
29 55
29 56
29 57
29 58
30 34
30 35
30 37
30 38
30 39
30 40
30 41
30 42
30 43
30 45
30 46
30 49
30 51
30 54
30 55
30 56
30 57
30 58
30 59
31 32
31 33
31 34
31 36
31 39
31 40
31 42
31 43
31 44
31 45
31 46
31 47
31 48
31 50
31 51
31 52
31 53
31 56
31 57
31 58
32 33
32 34
32 37
32 38
32 39
32 40
32 41
32 42
32 43
32 44
32 45
32 46
32 47
32 49
32 50
32 51
32 53
32 54
32 55
32 57
32 58
33 34
33 35
33 37
33 38
33 40
33 41
33 42
33 43
33 44
33 45
33 46
33 47
33 48
33 50
33 51
33 52
33 53
33 54
33 56
33 57
33 58
34 36
34 37
34 38
34 39
34 40
34 41
34 43
34 44
34 45
34 46
34 49
34 50
34 51
34 52
34 54
34 55
34 56
34 57
35 37
35 39
35 40
35 41
35 42
35 43
35 44
35 46
35 47
35 48
35 49
35 51
35 53
35 54
35 55
35 56
35 57
35 58
35 59
36 37
36 38
36 40
36 41
36 43
36 44
36 45
36 51
36 53
36 54
36 56
36 57
36 59
37 39
37 40
37 41
37 42
37 44
37 45
37 46
37 49
37 51
37 52
37 53
37 55
37 56
37 57
37 58
37 59
38 40
38 44
38 45
38 46
38 47
38 48
38 49
38 50
38 51
38 52
38 53
38 55
38 57
38 58
39 40
39 41
39 42
39 43
39 44
39 45
39 46
39 48
39 54
39 55
39 57
39 58
40 43
40 44
40 45
40 46
40 47
40 48
40 49
40 51
40 52
40 53
40 54
40 55
40 56
40 59
41 43
41 44
41 47
41 48
41 49
41 50
41 53
41 55
41 57
41 58
42 43
42 44
42 47
42 48
42 50
42 51
42 52
42 53
42 54
42 55
42 56
42 57
42 59
43 44
43 46
43 47
43 48
43 49
43 50
43 52
43 53
43 55
43 56
43 58
43 59
44 46
44 47
44 48
44 50
44 51
44 52
44 53
44 54
44 55
44 58
45 47
45 48
45 49
45 50
45 51
45 54
45 56
45 59
46 49
46 50
46 51
46 52
46 53
46 55
46 56
46 58
46 59
47 49
47 50
47 51
47 53
47 54
47 56
47 57
47 58
47 59
48 49
48 51
48 52
48 53
48 57
48 58
49 50
49 51
49 54
49 56
49 57
49 58
49 59
50 52
50 53
50 54
50 55
50 56
50 57
50 58
50 59
51 52
51 53
51 54
51 55
51 58
51 59
52 54
52 55
52 57
52 58
52 59
53 54
53 55
53 56
53 57
53 59
54 55
54 57
54 58
54 59
55 56
55 58
55 59
56 57
56 58
57 58
57 59
58 59
45 49 23 47 16 4 29 46 9
26 24 11 22 21 37 50 56 25
32 53 41 12 30 58 8 52 19
31 34 42 38 48 2 35 39 36
15 40 0 43 14 51 13 5 17
28 18 3 33 27 20 54 55 1
44 6 57 10 7 59
